
 102   30
  10   10   10   10   10   10   10   10   10   10   10   10   10   10   10   10   10   10   10   10   10   10   10   10   10   10   10   10   10   10

   0   0   0   0   0   0   0   0   0   0   0   0   0   0   0   0   0   0   0   0   0   0   0   0   0   0   0   0   0   0   0  26 2 3 4 5 7 8 9 10 11 12 13 14 15 17 18 19 20 21 22 24 26 27 28 34 38 46 
   9   0   0   0   0   0   0   3   0   0   0   0   0   0   0   0   0   1   0   3   0   0   0   0   0   0   0   0   0   0   0   9 77 75 58 57 49 37 36 25 6 
   7   0   0   4   0   0   0   0   0   0   0   0   0   0   0   0   0   0   1   0   2   0   0   0   2   0   0   0   0   0   0  10 75 63 58 56 54 52 39 36 32 16 
   2   0   0   0   0   0   0   0   0   0   0   0   2   0   1   0   0   0   0   0   1   4   0   0   0   0   0   0   0   0   0  15 75 72 65 59 58 55 54 53 48 47 44 42 41 37 32 
   9   0   0   0   0   0   0   0   0   0   0   0   0   0   0   0   0   0   0   0   0   0   0   1   0   0   0   0   0   0   0  11 74 65 64 63 62 57 52 50 39 32 16 
   3   0   0   0   0   2   0   0   0   0   0   0   0   0   0   0   0   0   0   0   0   0   0   0   0   0   0   0   3   0   0  16 76 73 72 71 69 62 59 56 54 53 51 50 44 42 35 32 
   1   0   0   0   0   0   0   0   0   0   0   0   0   0   0   0   0   0   0   0   0   0   0   5   0   0   0   0   0   0   0  15 101 93 75 73 72 64 63 62 61 60 55 49 47 43 29 
   6   0   1   0   0   0   0   0   0   0   0   0   0   0   0   1   5   0   0   0   0   0   0   0   0   0   0   0   0   0   0  15 101 100 77 75 71 65 64 63 62 57 49 48 44 35 32 
  10   0   0   0   0   0   0   8   0   0   0   0   0   0   0   4   0   0   0   0   0   0   0   0   0   0   0   1   0   1   0   8 77 75 62 56 39 33 32 30 
   9   1   0   0   0   0   2   0   3   0   0   0   0   0   0   0   7   0   0   0   0   0   0   0   0   0   0   0   0   0   0  14 98 76 75 74 72 63 59 57 56 51 45 39 37 31 
   8   0   0   0   0   0   0   0   2   0   0   0   0   0   0   0   0  10   0   0   0   0   0   0   4   0   2   0   0   0   0  12 77 74 73 72 71 70 64 62 59 55 40 23 
   8   7   0   0   0   0   0   0   0   0   0   0   0   0   0   0   0   0   0   0   3   0   0   0   0   0   0   0   0   0   0  16 99 94 91 76 74 73 72 71 70 69 63 62 55 54 53 32 
   4   0   0   0   0   0   0   0  10   1   0   0   0   0   0   0   4   0   0   0   0   4   1   0   0   1   0   0   0   6   0  15 101 100 94 91 75 73 72 71 69 64 63 55 53 44 32 
   6   0   0   0   0   0   0   4   0   0   0   0   4   0   0   5   0   0   0   0   0   6   0   0   0   6   0   0   6   0   0  13 97 91 77 75 73 72 65 63 54 48 47 44 37 
   7   0   0   0   0   0   0   0   0   0   0   0   0   0   0   0   0   8   0   5   0   0   9   0   0   0   0   0   0   0   0   8 92 73 72 71 63 55 54 23 
   8   0   0   7   0   0   0   0   0   8   0   0   6   0   0   0   0   0   0   0   0   0   6   0   7   0   0   0   0   6   0  12 76 73 72 71 61 60 53 48 47 45 44 42 
   5   0   0   0   0   0   4   0   0   5   0   0   0   0   0   0   0   0   0   0   0   0   0   6   0   5   0   0   0   0   0  12 101 99 94 91 75 71 70 69 58 57 53 32 
   6   9   0   3   0   5   0   3   0   0   0   0   6   0   0   0   0   0   0   0   0   0   0   4   0   0   0   0   0   0   0  17 99 98 96 91 88 87 75 73 71 70 69 66 65 63 61 58 45 
   2   0   0   0   0   0   0   4   0   0   0   0   0   0   0   0   0   6   0   0   0   0   0   0   0   8   0   0   0   0   0  12 98 96 95 94 85 84 74 64 54 53 44 42 
   4   0   0   0   0   0   0   0   0   0   1   0   0   0   0   0   0   3   0   0   0   6   0   0   0   0   8   0   6   5   1  11 97 86 72 70 64 62 57 55 53 48 40 
   3   0  10   0   0   0   0   0   0   0   0   0   6   0   7   0   0   5   0   7   0   0   0   0   5   0   0   0   0   6   0  14 101 98 96 94 92 91 90 88 74 62 61 60 48 45 
   3   0   8   0   0   0   0   0   0   0   0   0   7   0   8   7   0   0   0   0   0   7   8   0   0   0   0   0   4   0   0   8 100 94 93 91 70 69 63 32 
   7   0   0   7   0   0   0   0   0   0   0   0   0   1   0   0   0   0   0   7   5   5   0   0   0   0   0   0   0   0   0   8 100 99 94 93 91 83 53 32 
   8   0   0   0   0   0   0   0   0   0   0   0   5   3   0   0   6   0   0   7   0   0   0   0   0   0   0   0   0   0   0  16 101 99 98 96 91 90 88 87 86 71 69 64 62 60 58 53 
   4   0   0   0   0   0   0   0   0   0   0   0   5   0   0   0   0   0   0   0   0   0   0   0   0   0   0   5   0   0   0  12 100 96 95 94 92 84 74 69 63 61 53 42 
   7   0   4   5   0   0  10   0   0   0   0   0   0   0   0   0   0   0   0   0   0   0   0   0   0   0   0   0   0   8   0  17 100 99 98 95 94 93 91 88 87 82 81 75 74 70 68 65 53 
   2   0   0   0   0   0   0   0   0   0   0   0   0   0   0   0   0   6   0   0   0   0   8   0   0   0   0   0   8   0   0  15 99 98 96 95 91 89 87 76 75 71 64 62 61 59 54 
   8   0   0   0   1   0   0   0   0   0   0   0   0   0   0   0   0   0   0   0   0   0   0   0   6   0   0   0   0   0   0  17 98 97 94 92 91 89 88 84 73 71 69 68 67 66 64 62 61 
   8   7   0   0   0   6   0  10   0   0   0   0   0   0   0   4   0   6   0   0   0   3   0   0   0   0   0   0   0   0   0  12 99 92 91 90 87 82 76 74 69 56 53 45 
   6   0   5   0   0   0   0   0   0   0   0   0   0   0   0   8   0   8   0   0  10   0   0   7   0   0   0   8   0   0   0  12 99 97 95 91 86 85 81 74 72 68 53 49 
   5   0   0   0   0   0   0   0   0   0   0   0   0   0   0   0   5   0   0   0   0   0   0   0   7   0   7   0   0   0  10  13 97 96 95 93 91 90 87 84 69 68 65 62 53 
   4   0   0   0   0   0   0   0   0   0   0   0   0   5   0   0   0   0   5   0   8   5   5   0   0   0   0   0   0   0   0   9 98 96 90 88 87 82 61 60 45 
   6   0   0   0   0   0   0   0   0   0   0   0   9   0   0   0   0   0   0   6   0   0   0   0   5   5   6   0   0   0   6  15 99 96 94 92 91 89 88 85 81 73 71 69 67 66 64 
   9   0   0   0   0   0   7   0   0   0   0   1   0   0   0   0   0   0  10   0   0   0   0   0   0   0   7   0   0   0   0  15 101 99 98 96 95 92 90 87 86 82 80 79 69 62 60 
   1   0   0   0   0   0   0   0   0   0   0   0   0   0   0   0   0   7   0   0   0   0   0   0   7   0   0   0   0   0   0  10 99 97 96 91 87 86 82 70 67 47 
   8   0   7   7   0  10   0   0   0   0   0   0   0   0   0   0   0   0   0   0   0   5   5   0   0   0   0   0   0   0   0  13 100 94 93 91 90 89 87 84 82 74 69 62 61 
   3   6   0   0   0   0   0   0   0   0   0   3   5   0   0   0   0   0   6   0   0   0   5   0   0   0   0   7   0   0   0  13 99 96 95 94 93 92 88 87 84 82 66 62 61 
   6   0   0   0   0   0   0   0   0   0   0   0   0   0   0   0   0   0   0   0  10   0   0   0  10   0   0   6   0   0   0  15 101 100 97 96 94 90 86 83 82 81 78 74 71 68 67 
   2   7   0   4   0   6   0   0   0   9   0   0   0   0   6  10   0   0   0   0   0   0   0   0   0   0   0   0   0   0   6  13 99 97 95 94 93 90 89 87 84 70 69 67 66 
   8   0   0   0   0   0   0   0   0   6   0   0   0   9   0   0   0   0   6   0   0   0   0   0   0   0   0   0   0   0   0  13 98 94 93 91 90 89 84 82 81 79 69 68 66 
   9   0   0   2   0   0   4   0   0   0   0   0   0   8   0   0   3   7   0   0   0   0   0   0   0   0   0   0   0   0   5  11 101 95 94 93 83 81 80 76 73 66 61 
   9   0   0   0   0   0   0   0   0   0   0   0   0   0   0   0   0   0   0   0   0   0   7   0   0   0   0   0   0   0   0  13 97 93 91 89 88 87 86 83 82 81 79 78 68 
   1   0   0   0   0   0   3   0   0   0   0   0   0   0   0   0   0   0   0   0   0   0   0   0   0   0   0   0   0   0   0  11 99 92 88 87 86 84 81 80 79 69 66 
  10   0   0   0   0  10   0   0   8   0   0   0   0   0   0   0   0   0   8   5   0   0   4   0   0   0   6   0   0   0   0  10 99 93 90 88 87 83 80 79 78 70 
   4   0   9   0   0   0   0   0   0   0   0   0   0   0   5   0   0   0   0   0   6   6   0   0   0   0   0   0   0   7   0   9 97 95 89 85 84 81 78 68 67 
   2   0   0   0   0   0   0   0   0   0   8   0   0   0   0   7   0   0   0   0   0   0   0   0   0   0   0   0   0   0   0   9 97 93 92 91 90 86 83 71 67 
   4   0   0   0   3   0   0   0   0   0   5   0   0   0   0   0   0   0   9   0   0   0   0   0   0   0   0   0   0   0   0   8 98 94 89 85 84 81 78 68 
   6   0   0   0   0   0   0   0   0   0   0   0   0   0   0   0   5   0   0   0   0   0   0   0   0   7   0   0   0   0   0   8 93 87 85 84 82 79 78 69 
  10   0   0   0   0   0   0  10   0   0   0   0   0   0   0   0   0   0   0   0   6   6   8   0   0   0   0   0   0   0   0   8 98 96 94 88 87 80 79 70 
   4   0   0   4   0   7   9   6   0   0   0   0   0   0   0   0   0   0   0   0   0   0   0   0   0   0   0   0   0   0   0   8 93 92 85 82 81 80 79 78 
   7   0   0   0   0   0   0   0   0   0   0   0   0   5   0   0   0   0   0   0   0   3   0   0   0   0   0   0   0  10   0   7 91 90 86 85 81 78 67 
   4   0   0   0   0   0   0   0   0   3   8   0   0   0   0   0   0   0   0   0   0   0   0   0   0   0   0   0   0   0   0   7 99 87 81 80 79 78 72 
   7   0   0   8   0   0   0   0   0   0   0   7   0   5   0   6   0   0   0   0   5   6   0   0   0   0   0   0   0   6   0   3 89 67 66 
   3   0   0   0   0   0   0   0   0   0   0   0   0   0  10   0   0   0   0   0   0   0   0   0   0   0   0   0   0   0   0   4 101 100 81 78 
   1   0   0  10   0   0   0   6   0   0   0   0   0   0   0   0   0   0   0   0   0   0   0   0   0   0   0   0   0   0   0   4 95 82 80 78 
  10   0   0   0   0   5   0   0   0   0   0   0   9   0   0   0   7   0   0   0   0   0   0   0   6   0   0   0   0   0   0   4 85 84 80 78 
   3   0   0   0   0   0   0   0   6   0   0   0   0   0   0   0   0   0   0   0   0   6   0   0   0   0  10   0   0   0   0   4 96 88 83 78 
   6   0   0   0   0   0   0   0   0   0   6   0   0   0   0   0   0   0   0   0   0   0   0   0   0   7   0   0   0   0   0   3 100 93 83 
   8   6   0   0   7   0   7   0   0   0   0   0   0  10   0   0   7   0   0   3   0   0   4   0   0   0   5   0  10   0   0   3 88 83 79 
   6   0   0   0   0   0   0   0   0   0   0   0   0   0   0   0   0   0   0   0   0  10   0   0   0   0   7   0   0   0   0   2 84 66 
   3   9   0   0   0   0   0   0   0   8   8   7   0   0   0   0   0   0   0   0   0   0   0   0   0   0   0   0   0   0   8   2 86 79 
   2   0   0   0   0   0   0   0   0   0   0   0   0   0   0   0   0   0   0   0   0   0   0   0   0   0   0   0   0   0   0   2 85 81 
   7   0   0   0   0   0   0   0   0   0   0   0   0   0   0   0   5   0   0  10   0   0   6   0   0   0   5   0   0   0   0   2 82 78 
   5   0   6   5   0   0   0   6   0   0   0   0   0   0   0   0   5   0   0   0   0   0   7   0   0   7   0   0   0   7   0   2 82 78 
   1   0   0   0   0   0   0   4   7   0   0   0   0   0   7   0   0   0   6   0   0   0   0   0   0   0   6   0   0   0   0   2 86 85 
   6   0   0   0   0   0   6   0   0   0   0   0   0   0   0   0   0   0   0   0   5   0   0   0   0   0   5   0   0   0   0   1 78 
   8   0   0   0   0   5   0   0   6   0   0   0   0   0   0   0   4   0   0   0  10   0   6   0   0   0   0   0   0   0   0   1 79 
   5   0   0   0   0   6   0   0   0   0   0   0   0   0   0   7   0   0   0   0   8   0   0   0   0   0   0   0   0   0   0   1 80 
   7   0   0   0   0   0   0   0   0   0   0   0   0   0   0   0   0   0   0   0   0   8   6   5   0   0   0   0   0   0   0   1 83 
   7   0   0   0   0   0   5   0   0   0   0   0   0   0   0   0   0   0   6   0   1   9   0   6   0   0   0   0   5   0   0   1 92 
   1   0   0   0   0   0   0   0   0   0   0   0   0   0   0   0   0   6   0   0   0   0   0   0   6   0   0   0   0   0   0   1 80 
   6   0   6   0   0  10   0   0   0   0   0   0   0   0   0   0   0   0   0   0   7   0   0   0   0   0   0   5   0   6   0   1 82 
   5   0   5   0   0   0   0   0   0   0   0   0   6   0   0   0   0   0   0   0   0   0   0   0   0   0   6   7   0   0   0   1 90 
   5   0   0   0   0   0   0   8   0   0   0   0   4   0   0   6   0   0   0   4   0   0   0  10   9   0   0   6   0   0   0   1 80 
   4   0   0   0   5   0   0   0   0   0   0   0   5   0   0   9   0   3   0   0   0   0   0   0   0   0   0   0   0   0   0   1 84 
   8   0   0   0   0   7  10   0   0   0   0   0   0   0   0   0   0   0   0   0   0   0   0   0   0   9   0   7   0   0   0   1 88 
   7   0   0   0   0   0   0   0   0   0   0   0   0   0   0   0   0   0   5   0   0   5   0   0   0   0   0   0   0   0   0   1 78 
   4   0   0   0   9   0   8   0   0   0   0   0   0   0   0   0   0   0   0   0   0   0   7   0   0   0   0   7   0   0   0   1 102
   7   0   0   0   0   0   0   0   0   0   0   0   7   0   0   0   0   0   0   0   0   0   0   0   4   0   0   0   0   4   0   1 102
   4   0   0   0   0   0   0   0   0   0   0   0   0   0   0   0   0   0   0   5   0   0   0   0   0   0   0   0   0   0   0   1 102
   9   0   7   4   0   0   0   0   0   0   0   0   0   8   0   3   0   0   0   0   9   0   0   0   0   0   0   0   0   0   0   1 102
   6   0   0  10   0   3   0   0   0   0   0   0   0   0   0   0  10   0   0   0   0   0   0  10   0   0   0   0   0   0   0   1 102
   8   0   0   7   4   0   0   0   0   0   0   0  10   0   0   0   0   0   6   0   0   0   0   0   0   0   0   0   0   0   0   1 102
   7   0   5   0   0   0   0   0   0   0   0   0   0   0   0   0   0   0   8   0   0   0   7   0   0   0   0   0   0   0   0   1 102
   5   0   5   0   9   4   0   0   0   0   0   0   0   0   4   0   0   0   0   0   0  10   0   0   0   0   0   9   4   4   0   1 102
   1   0   0   0   0   0   0   0   0   0   0   0   0   0   0   0   0   0   4   0   0   0   0   0   0   0   0   0   0   0   0   1 102
   1   0   0   0   0   0   0   0   0   0   0   7   0   6   0   0  10   0   0   0   0   0   0   0   0   4   0   3   0   8   0   1 102
   1   0   0   0   0   0   0   0   0   0   0   0   0   0   0   0   0   8   7   0   0   0   0   0   0   0   5   0   7   8   0   1 102
   3   0   0   0   0   0   0   0   0   0   0   0   0   0   0   0   7   0   0   0   0   0   0   0   0   0   0   0   0   4   0   1 102
   8   0   0   0   8   0   0   0   0   0   0  10   0   0   0   0   0   0   0   0   0   7   0   0   4   0   0   0   7   0   0   1 102
  10   5   0   0   8   0   0   0   0   0   0   0   0   0   0   0   0   0   0   0   0   0   0   3   0   0   0   0   0   0   0   1 102
   7   0   0   0   0   0   0   0   0   0   0   0   0   0   0   0   0   0   0   0   0   0   0   0   0   0   0   0   0   0   0   1 102
   4   0   7   0   0   4   6   0   0   0   0   0   0   0   0   0   0   0   0   0   6   0   0   0   0   0   0   0   0   0   0   1 102
   4   0   0   0   0   0   0   0   0   0   0   0   0   0   0   6   0   5   0   0   0   0   0   9   0   4   0   0   0   0   0   1 102
   8   3   0   0   0   0   0   0   0   0   0   5   0   6   0   0   0   0   0  10   0   0   0   7   0   0   0   0   0   0   0   1 102
   2   0   6   0   0   0   3   0   0   0   0   0   0   0   0  10   0   6   3   0   0   5   5   0   0   0   5   0   0   0   0   1 102
   8   0   0   0   0   0   0   0   0   7   0   0   0   0   0   0   0   0   0   0   0   0   0   0   8   0   0   0   0   0   0   1 102
   7   0   5   0   0   0   0   0   0   0   0   0   0   0   0   3   0   7   0   0   0   0   0   5   0   9   0   7   0   0   0   1 102
   9   0   0   0   0   0   0   0   0   7   0   0   0   0   0   0   0   0   0   0   0   0   0   0   0   0   0   0   0   0   0   1 102
   7   0   0   0   0   0   0   0   0   0   0   8   0   0   0   0   0   0   0   0   0   0   0   0   0   0   0   0   0   0   0   1 102
   6   0   0   9   0   6   0   0   0   0   0   0   0   0   0   0   0   0   0   0   0   0   0   0   0   0   0   0   0   0   0   1 102
   0   0   0   0   0   0   0   0   0   0   0   0   0   0   0   0   0   0   0   0   0   0   0   0   0   0   0   0   0   0   0   0 
